;; produced by z3_gnatprove.drv ;;
(set-info :smt-lib-version 2.5)
(set-info :source |VC generated by SPARK 2014|)
(set-info :category industrial)
(set-info :status unknown)
;;; generated by SMT-LIB2 driver
;;; SMT-LIB2 driver: bit-vectors, common part
;;; SMT-LIB2: integer arithmetic
(define-fun __cdiv ((x Int) (y Int)) Int (ite (>= x 0) (div x y) (- (div (- x) y))))
(define-fun __cmod ((x Int) (y Int)) Int (ite (>= x 0) (mod x y) (- (mod (- x) y))))
(declare-sort us_private 0)

(declare-const us_null_ext__ us_private)

(declare-datatypes ()
  ((int__ref (int__refqtmk (int__content Int)))))

(declare-datatypes ()
  ((bool__ref (bool__refqtmk (bool__content Bool)))))

(declare-const two_power_size_minus_one Int)

(declare-datatypes ()
  ((t__ref (t__refqtmk (t__content (_ BitVec 64))))))

(declare-sort integer 0)

;; "integer'int"
(declare-fun integerqtint (integer) Int)

;; "integer'axiom"
(assert
  (forall ((i integer))
    (and
      (<= (- 2147483648) (integerqtint i))
      (<= (integerqtint i) 2147483647))))

;; "in_range"
(define-fun in_range ((x Int)) Bool
  (and (<= (- 2147483648) x) (<= x 2147483647)))

;; "in_range"
(define-fun in_range1 ((x Int)) Bool
  (and (<= 0 x) (<= x 2147483647)))

;; "to_rep"
(define-fun to_rep ((x integer)) Int
  (integerqtint x))

;; "of_rep"
(declare-fun of_rep (Int) integer)

;; "inversion_axiom"
(assert
  (forall ((x integer)) (! (= (of_rep (to_rep x)) x) :pattern ((to_rep x)) )))

;; "range_axiom"
(assert
  (forall ((x integer)) (! (in_range (to_rep x)) :pattern ((to_rep x)) )))

;; "coerce_axiom"
(assert
  (forall ((x Int))
    (! (=> (in_range x) (= (to_rep (of_rep x)) x)) :pattern ((to_rep
                                                               (of_rep x))) )))

(declare-const two_power_size_minus_one1 Int)

(declare-sort unsigned_8 0)

(declare-const attr__ATTRIBUTE_MODULUS (_ BitVec 8))

;; "in_range"
(define-fun in_range2 ((x Int)) Bool
  (and (<= 0 x) (<= x 2147483646)))

;; "to_rep"
(declare-fun to_rep1 (unsigned_8) (_ BitVec 8))

;; "of_rep"
(declare-fun of_rep1 ((_ BitVec 8)) unsigned_8)

;; "inversion_axiom"
(assert
  (forall ((x unsigned_8))
    (! (= (of_rep1 (to_rep1 x)) x) :pattern ((to_rep1 x)) )))

;; "range_axiom"
(assert true)

;; "coerce_axiom"
(assert
  (forall ((x (_ BitVec 8)))
    (! (= (to_rep1 (of_rep1 x)) x) :pattern ((to_rep1 (of_rep1 x))) )))

(declare-datatypes ()
  ((t (tqtmk (rec__first integer)(rec__last integer)))))

;; "dynamic_property"
(define-fun dynamic_property ((range_first Int) (range_last Int) (low Int) (high Int)) Bool
  (and
    (in_range low)
    (and
      (in_range high)
      (=> (<= low high) (and (in_range2 low) (in_range2 high))))))

(declare-datatypes ()
  ((us_t (us_tqtmk (elts (Array Int unsigned_8))(rt t)))))

;; "to_array"
(define-fun to_array ((a us_t)) (Array Int unsigned_8)
  (elts a))

;; "first"
(define-fun first ((a us_t)) Int
  (to_rep (rec__first (rt a))))

;; "last"
(define-fun last ((a us_t)) Int
  (to_rep (rec__last (rt a))))

;; "length"
(define-fun length ((a us_t)) Int
  (ite (<= (first a) (last a)) (+ (- (last a) (first a)) 1) 0))

(declare-const value__size Int)

(declare-const object__size Int)

(declare-const component__size Int)

(declare-const alignment Int)

;; "value__size_axiom"
(assert (<= 0 value__size))

;; "object__size_axiom"
(assert (<= 0 object__size))

;; "component__size_axiom"
(assert (<= 0 component__size))

;; "alignment_axiom"
(assert (<= 0 alignment))

;; "nth8_stream"
(declare-fun nth8_stream (us_t
  Int) Bool)

;; "nth"
(define-fun nth ((param__x (_ BitVec 8)) (param__pos Int)) Bool
  (= (bvand (ite (< param__pos 8)
              (bvlshr param__x ((_ int2bv 8) param__pos))
              #x00) #x01) #x01))

;; "peekbit8"
(declare-fun peekbit8 ((_ BitVec 8)
  Int) Bool)

;; "peekbit8__function_guard"
(declare-fun peekbit8__function_guard (Bool
  (_ BitVec 8)
  Int) Bool)

;; "peekbit8array"
(declare-fun peekbit8array (us_t
  Int) Bool)

;; "peekbit8array__function_guard"
(declare-fun peekbit8array__function_guard (Bool
  us_t
  Int) Bool)

;; "nth"
(define-fun nth1 ((param__x (_ BitVec 64)) (param__pos Int)) Bool
  (= (bvand (bvlshr param__x ((_ int2bv 64) param__pos)) #x0000000000000001) #x0000000000000001))

(declare-const attr__ATTRIBUTE_MODULUS1 (_ BitVec 64))

;; "pokebit64"
(declare-fun pokebit64 ((_ BitVec 64)
  Int
  Bool) (_ BitVec 64))

;; "pokebit64__function_guard"
(declare-fun pokebit64__function_guard ((_ BitVec 64)
  (_ BitVec 64)
  Int
  Bool) Bool)

(declare-const start Int)

(declare-const length1 Int)

(declare-const addr us_t)

;; "dynamic_invariant"
(define-fun dynamic_invariant ((temp___expr_204 us_t) (temp___is_init_200 Bool) (temp___skip_constant_201 Bool) (temp___do_toplevel_202 Bool) (temp___do_typ_inv_203 Bool)) Bool
  (=>
    (not (= temp___skip_constant_201 true))
    (dynamic_property
      0
      2147483646
      (first temp___expr_204)
      (last temp___expr_204))))

;; "peekbit8__post_axiom"
(assert
  (forall ((param__byte (_ BitVec 8)))
    (forall ((param__left Int))
      (! (=>
           (and (in_range1 param__left) (< param__left 8))
           (let ((result (peekbit8 param__byte param__left)))
             (=>
               (peekbit8__function_guard result param__byte param__left)
               (=
                 (= result true)
                 (= (nth param__byte (- 7 param__left)) true))))) :pattern (
      (peekbit8
        param__byte
        param__left)) ))))

;; "nth8_stream__post_axiom"
(assert true)

;; "nth8_stream__def_axiom"
(assert
  (forall ((param__stream us_t))
    (forall ((param__pos Int))
      (! (=
           (= (nth8_stream param__stream param__pos) true)
           (= (nth
                (to_rep1
                  (select (to_array param__stream) (__cdiv param__pos 8)))
                (- 7 (__cmod param__pos 8))) true)) :pattern ((nth8_stream
                                                                param__stream
                                                                param__pos)) ))))

(declare-const flag Bool)

;; "flag'unused"
(define-fun flagqtunused () bool__ref
  (bool__refqtmk flag))

;; "Assume"
(assert (in_range1 start))

;; "Assume"
(assert (in_range1 length1))

;; "Assume"
(assert (dynamic_invariant addr true false true true))

;; "Assume"
(assert
  (and
    (and
      (and (= (first addr) 0) (<= length1 64))
      (<= (+ start length1) 2147483647))
    (<= (* 8 (length addr)) 2147483647)))

;; "o"
(define-fun o () Int
  (length addr))

;; "length'result'unused"
(define-fun lengthqtresultqtunused () Int
  o)

;; "Ensures"
(assert (in_range o))

;; "range_check_'result'unused"
(define-fun range_check_qtresultqtunused () Int
  o)

;; "o"
(define-fun o1 () Int
  (* 8 o))

;; "infix *'result'unused"
(define-fun infix_asqtresultqtunused () Int
  o1)

;; "o"
(define-fun o2 () Int
  (+ start length1))

;; "infix +'result'unused"
(define-fun infix_plqtresultqtunused () Int
  o2)

;; "infix >'result'unused"
(define-fun infix_gtqtresultqtunused () Bool
  (ite (< o1 o2) true false))

;; "o"
(define-fun o3 () Int
  (length addr))

;; "length'result'unused"
(define-fun lengthqtresultqtunused1 () Int
  o3)

;; "Ensures"
(assert (in_range o3))

;; "range_check_'result'unused"
(define-fun range_check_qtresultqtunused1 () Int
  o3)

;; "o"
(define-fun o4 () Int
  (* 8 o3))

;; "infix *'result'unused"
(define-fun infix_asqtresultqtunused1 () Int
  o4)

;; "o"
(define-fun o5 () Int
  (+ start length1))

;; "infix +'result'unused"
(define-fun infix_plqtresultqtunused1 () Int
  o5)

;; "infix <='result'unused"
(define-fun infix_lseqqtresultqtunused () Bool
  (ite (<= o5 o4) true false))

(declare-const bitwalker__peek__result (_ BitVec 64))

;; "bitwalker__peek__result'unused"
(define-fun bitwalker__peek__resultqtunused () t__ref
  (t__refqtmk bitwalker__peek__result))

;; "H"
(assert
  (forall ((temp___209 Int) (temp___208 (_ BitVec 8)))
    (peekbit8__function_guard
      (peekbit8 temp___208 temp___209)
      temp___208
      temp___209)))

(declare-const o6 Int)

;; "H"
(assert (= o6 (length addr)))

(declare-const lengthqtresultqtunused2 Int)

;; "H"
(assert (= lengthqtresultqtunused2 o6))

;; "Ensures"
(assert (in_range o6))

(declare-const range_check_qtresultqtunused2 Int)

;; "H"
(assert (= range_check_qtresultqtunused2 o6))

(declare-const o7 Int)

;; "H"
(assert (= o7 (* 8 o6)))

(declare-const infix_asqtresultqtunused2 Int)

;; "H"
(assert (= infix_asqtresultqtunused2 o7))

;; "Ensures"
(assert (in_range o7))

(declare-const range_check_qtresultqtunused3 Int)

;; "H"
(assert (= range_check_qtresultqtunused3 o7))

(declare-const o8 Int)

;; "H"
(assert (= o8 (+ start length1)))

(declare-const infix_plqtresultqtunused2 Int)

;; "H"
(assert (= infix_plqtresultqtunused2 o8))

;; "Ensures"
(assert (in_range o8))

(declare-const range_check_qtresultqtunused4 Int)

;; "H"
(assert (= range_check_qtresultqtunused4 o8))

(declare-const o9 Bool)

;; "H"
(assert (= o9 (ite (< o7 o8) true false)))

(declare-const infix_gtqtresultqtunused1 Bool)

;; "H"
(assert (= infix_gtqtresultqtunused1 o9))

(declare-const spark__branch Bool)

(declare-const spark__branchqtunused bool__ref)

;; "H"
(assert (= spark__branchqtunused (bool__refqtmk spark__branch)))

;; "H"
(assert (= spark__branch o9))

(declare-const bool__contentqtresultqtunused Bool)

;; "H"
(assert (= bool__contentqtresultqtunused spark__branch))

(declare-const retval (_ BitVec 64))

(declare-const retvalqtunused t__ref)

(declare-const retval1 (_ BitVec 64))

(declare-const retvalqtunused1 t__ref)

(declare-const t__contentqtresultqtunused (_ BitVec 64))

(declare-const temp___328 Int)

(declare-const infix_mnqtresultqtunused Int)

(declare-const i Int)

(declare-const iqtunused int__ref)

(declare-const int__contentqtresultqtunused Int)

(declare-const o10 Bool)

(declare-const infix_lseqqtresultqtunused1 Bool)

(declare-const int__contentqtresultqtunused1 Int)

(declare-const o11 Bool)

(declare-const infix_lseqqtresultqtunused2 Bool)

(declare-const o12 Bool)

(declare-const andbqtresultqtunused Bool)

(declare-const temp___loop_entry_332qtunused Bool)

(declare-const bool__contentqtresultqtunused1 Bool)

(declare-const temp___loop_entry_331qtunused (_ BitVec 64))

(declare-const t__contentqtresultqtunused1 (_ BitVec 64))

(declare-const usfqtunused Bool)

(declare-const anyqtresultqtunused Bool)

(declare-const retval2 (_ BitVec 64))

(declare-const i1 Int)

(declare-const iqtunused1 int__ref)

(declare-const retvalqtunused2 t__ref)

(declare-const int__contentqtresultqtunused2 Int)

(declare-const o13 Int)

(declare-const infix_plqtresultqtunused3 Int)

(declare-const range_check_qtresultqtunused5 Int)

(declare-const o14 us_t)

(declare-const o15 Bool)

(declare-const peekbit8arrayqtresultqtunused Bool)

(declare-const flag1 Bool)

(declare-const flagqtunused1 bool__ref)

(declare-const bool__contentqtresultqtunused2 Bool)

(declare-const int__contentqtresultqtunused3 Int)

(declare-const o16 Int)

(declare-const infix_mnqtresultqtunused1 Int)

(declare-const o17 Int)

(declare-const infix_plqtresultqtunused4 Int)

(declare-const range_check_qtresultqtunused6 Int)

(declare-const range_check_qtresultqtunused7 Int)

(declare-const t__contentqtresultqtunused2 (_ BitVec 64))

(declare-const o18 (_ BitVec 64))

(declare-const pokebit64qtresultqtunused (_ BitVec 64))

(declare-const int__contentqtresultqtunused4 Int)

(declare-const infix_eqqtresultqtunused Bool)

(declare-const usf Int)

(declare-const anyqtresultqtunused1 Int)

(declare-const jqtunused Int)

(declare-const o19 Int)

(declare-const infix_mnqtresultqtunused2 Int)

(declare-const o20 Bool)

(declare-const infix_lseqqtresultqtunused3 Bool)

(declare-const int__contentqtresultqtunused5 Int)

(declare-const o21 Int)

(declare-const infix_mnqtresultqtunused3 Int)

(declare-const o22 Bool)

(declare-const infix_lseqqtresultqtunused4 Bool)

(declare-const andbqtresultqtunused1 Bool)

;; "H"
(assert
  (ite (= spark__branch true)
    (= bitwalker__peek__result #x0000000000000000)
    (and
      (= retvalqtunused (t__refqtmk retval))
      (and
        (= retval #x0000000000000000)
        (and
          (= retvalqtunused1 (t__refqtmk retval1))
          (and
            (and
              (= temp___328 (- length1 1))
              (and
                (= infix_mnqtresultqtunused temp___328)
                (and
                  (= iqtunused (int__refqtmk i))
                  (and
                    (= i 0)
                    (and
                      (= int__contentqtresultqtunused i)
                      (and
                        (= o10 (ite (<= i temp___328) true false))
                        (and
                          (= infix_lseqqtresultqtunused1 o10)
                          (and
                            (= int__contentqtresultqtunused1 i)
                            (and
                              (= o11 (ite (<= 0 i) true false))
                              (and
                                (= infix_lseqqtresultqtunused2 o11)
                                (and
                                  (= o12 (and o11 o10))
                                  (and
                                    (= andbqtresultqtunused o12)
                                    (ite (= o12 true)
                                      (and
                                        (= temp___loop_entry_332qtunused 
                                        flag)
                                        (and
                                          (= bool__contentqtresultqtunused1 
                                          flag)
                                          (and
                                            (= temp___loop_entry_331qtunused 
                                            retval)
                                            (and
                                              (= t__contentqtresultqtunused1 
                                              retval)
                                              (and
                                                (and
                                                  (= anyqtresultqtunused1 
                                                  usf)
                                                  (and
                                                    (= jqtunused usf)
                                                    (and
                                                      (= o19 (- length1 1))
                                                      (and
                                                        (= infix_mnqtresultqtunused2 
                                                        o19)
                                                        (and
                                                          (= o20 (ite (<= 
                                                                   usf 
                                                                   o19)
                                                                   true
                                                                   false))
                                                          (and
                                                            (= infix_lseqqtresultqtunused3 
                                                            o20)
                                                            (and
                                                              (= int__contentqtresultqtunused5 
                                                              i)
                                                              (and
                                                                (= o21 (- 
                                                                length1 
                                                                i))
                                                                (and
                                                                  (= 
                                                                  infix_mnqtresultqtunused3 
                                                                  o21)
                                                                  (and
                                                                    (= 
                                                                    o22 
                                                                    (ite (<= 
                                                                    o21 
                                                                    usf)
                                                                    true
                                                                    false))
                                                                    (and
                                                                    (= 
                                                                    infix_lseqqtresultqtunused4 
                                                                    o22)
                                                                    (= 
                                                                    andbqtresultqtunused1 (and 
                                                                    o22 
                                                                    o20)))))))))))))
                                                (and
                                                  (= usfqtunused (ite 
                                                                   (forall 
                                                                    ((j Int))
                                                                    (=>
                                                                    (and
                                                                    (<= (- 
                                                                    length1 
                                                                    i) j)
                                                                    (<= j (- 
                                                                    length1 1)))
                                                                    (=
                                                                    (= 
                                                                    (nth8_stream
                                                                    addr
                                                                    (- (- (+ 
                                                                    start 
                                                                    length1) j) 1)) true)
                                                                    (= 
                                                                    (nth1
                                                                    retval
                                                                    j) true))))
                                                                   true
                                                                   false))
                                                  (and
                                                    (= anyqtresultqtunused 
                                                    (ite (forall ((j Int))
                                                           (=>
                                                             (and
                                                               (<= (- 
                                                               length1 
                                                               i) j)
                                                               (<= j (- 
                                                               length1 1)))
                                                             (=
                                                               (= (nth8_stream
                                                                    addr
                                                                    (- (- (+ 
                                                                    start 
                                                                    length1) j) 1)) true)
                                                               (= (nth1
                                                                    retval
                                                                    j) true))))
                                                      true
                                                      false))
                                                    (and
                                                      (= iqtunused1 (int__refqtmk
                                                                    i1))
                                                      (and
                                                        (= retvalqtunused2 
                                                        (t__refqtmk
                                                          retval2))
                                                        (and
                                                          (and
                                                            (forall ((j Int))
                                                              (=>
                                                                (and
                                                                  (<= (- 
                                                                  length1 
                                                                  i1) j)
                                                                  (<= j (- 
                                                                  length1 1)))
                                                                (=
                                                                  (= 
                                                                  (nth8_stream
                                                                    addr
                                                                    (- (- (+ 
                                                                    start 
                                                                    length1) j) 1)) true)
                                                                  (= 
                                                                  (nth1
                                                                    retval2
                                                                    j) true))))
                                                            (forall ((j Int))
                                                              (=>
                                                                (and
                                                                  (<= 
                                                                  length1 j)
                                                                  (<= j 63))
                                                                (not
                                                                  (= 
                                                                  (nth1
                                                                    retval2
                                                                    j) true)))))
                                                          (and
                                                            (= (and (ite true
                                                                    true
                                                                    false) 
                                                            (ite (and
                                                                   (<= 0 
                                                                   i1)
                                                                   (<= 
                                                                   i1 (- 
                                                                   length1 1)))
                                                              true
                                                              false)) true)
                                                            (and
                                                              (= int__contentqtresultqtunused2 
                                                              i1)
                                                              (and
                                                                (= o13 (+ 
                                                                start 
                                                                i1))
                                                                (and
                                                                  (= 
                                                                  infix_plqtresultqtunused3 
                                                                  o13)
                                                                  (and
                                                                    (in_range
                                                                    o13)
                                                                    (and
                                                                    (= 
                                                                    range_check_qtresultqtunused5 
                                                                    o13)
                                                                    (and
                                                                    (= 
                                                                    o14 
                                                                    addr)
                                                                    (and
                                                                    (= 
                                                                    o15 
                                                                    (peekbit8array
                                                                    o14
                                                                    o13))
                                                                    (and
                                                                    (and
                                                                    (peekbit8array__function_guard
                                                                    o15
                                                                    o14
                                                                    o13)
                                                                    (and
                                                                    (=
                                                                    (= 
                                                                    o15 true)
                                                                    (= 
                                                                    (let ((temp___209 (__cmod 
                                                                    o13 8)))
                                                                    (let ((temp___208 
                                                                    (to_rep1
                                                                    (select 
                                                                    (to_array
                                                                    o14) (__cdiv 
                                                                    o13 8)))))
                                                                    (peekbit8
                                                                    temp___208
                                                                    temp___209))) true))
                                                                    (=
                                                                    (= 
                                                                    o15 true)
                                                                    (= 
                                                                    (nth8_stream
                                                                    o14
                                                                    o13) true))))
                                                                    (and
                                                                    (= 
                                                                    peekbit8arrayqtresultqtunused 
                                                                    o15)
                                                                    (and
                                                                    (= 
                                                                    flagqtunused1 
                                                                    (bool__refqtmk
                                                                    flag1))
                                                                    (and
                                                                    (= 
                                                                    flag1 
                                                                    o15)
                                                                    (and
                                                                    (= 
                                                                    bool__contentqtresultqtunused2 
                                                                    flag1)
                                                                    (and
                                                                    (= 
                                                                    int__contentqtresultqtunused3 
                                                                    i1)
                                                                    (and
                                                                    (= 
                                                                    o16 (- 64 
                                                                    length1))
                                                                    (and
                                                                    (= 
                                                                    infix_mnqtresultqtunused1 
                                                                    o16)
                                                                    (and
                                                                    (= 
                                                                    o17 (+ 
                                                                    o16 
                                                                    i1))
                                                                    (and
                                                                    (= 
                                                                    infix_plqtresultqtunused4 
                                                                    o17)
                                                                    (and
                                                                    (in_range
                                                                    o17)
                                                                    (and
                                                                    (= 
                                                                    range_check_qtresultqtunused6 
                                                                    o17)
                                                                    (and
                                                                    (in_range1
                                                                    o17)
                                                                    (and
                                                                    (= 
                                                                    range_check_qtresultqtunused7 
                                                                    o17)
                                                                    (and
                                                                    (= 
                                                                    t__contentqtresultqtunused2 
                                                                    retval2)
                                                                    (and
                                                                    (= 
                                                                    o18 
                                                                    (pokebit64
                                                                    retval2
                                                                    o17
                                                                    flag1))
                                                                    (and
                                                                    (and
                                                                    (pokebit64__function_guard
                                                                    o18
                                                                    retval2
                                                                    o17
                                                                    flag1)
                                                                    (and
                                                                    (forall 
                                                                    ((i2 Int))
                                                                    (=>
                                                                    (and
                                                                    (<= 0 i2)
                                                                    (<= i2 63))
                                                                    (=>
                                                                    (not
                                                                    (= i2 (- 63 
                                                                    o17)))
                                                                    (=
                                                                    (= 
                                                                    (nth1
                                                                    o18
                                                                    i2) true)
                                                                    (= 
                                                                    (nth1
                                                                    retval2
                                                                    i2) true)))))
                                                                    (=
                                                                    (= 
                                                                    flag1 true)
                                                                    (= 
                                                                    (nth1
                                                                    o18
                                                                    (- 63 
                                                                    o17)) true))))
                                                                    (and
                                                                    (= 
                                                                    pokebit64qtresultqtunused 
                                                                    o18)
                                                                    (and
                                                                    (= 
                                                                    retval1 
                                                                    o18)
                                                                    (and
                                                                    (= 
                                                                    int__contentqtresultqtunused4 
                                                                    i1)
                                                                    (and
                                                                    (= 
                                                                    infix_eqqtresultqtunused 
                                                                    (ite (= 
                                                                    i1 
                                                                    temp___328)
                                                                    true
                                                                    false))
                                                                    (= 
                                                                    i1 
                                                                    temp___328))))))))))))))))))))))))))))))))))))))))
                                      (= retval1 retval))))))))))))))
            (and
              (= t__contentqtresultqtunused retval1)
              (= bitwalker__peek__result retval1))))))))

;; "Assert"
(assert (=> (< o1 o2) (= bitwalker__peek__result #x0000000000000000)))

;; "H"
(assert (<= o5 o4))

(declare-const i2 Int)

;; "H"
(assert (<= length1 i2))

;; "H"
(assert (<= i2 63))

;; Goal "def'vc"
;; File "bitwalker.ads", line 35, characters 0-0
(assert
  (not (not (= (nth1 bitwalker__peek__result i2) true))))

(check-sat)
